Solver command line: ['C:\\Program Files\\IBM\\ILOG\\CPLEX_Studio2211\\cplex\\bin\\x64_win64\\cplex.exe']


Welcome to IBM(R) ILOG(R) CPLEX(R) Interactive Optimizer 22.1.1.0
  with Simplex, Mixed Integer & Barrier Optimizers
5725-A06 5725-A29 5724-Y48 5724-Y49 5724-Y54 5724-Y55 5655-Y21
Copyright IBM Corp. 1988, 2022.  All Rights Reserved.

Type 'help' for a list of available commands.
Type 'help' followed by a command name for more
information on commands.

CPLEX> Logfile 'cplex.log' closed.
Logfile 'C:\Users\wangy\Documents\GitHub\re_optimization\result_site_specific\tmpf1et9k6a.cplex.log' open.
CPLEX> Problem 'C:\Users\wangy\Documents\GitHub\re_optimization\result_site_specific\tmpsx_r2mb4.pyomo.lp' read.
Read time = 0.30 sec. (9.13 ticks)
CPLEX> Problem name         : C:\Users\wangy\Documents\GitHub\re_optimization\result_site_specific\tmpsx_r2mb4.pyomo.lp
Objective sense      : Minimize
Variables            :   65769  [Nneg: 35068,  Free: 8792,  Binary: 9,
                                 Other: 21900]
Objective nonzeros   :      17
Linear constraints   :   87665  [Less: 46741,  Greater: 5,  Equal: 40919]
  Nonzeros           :  225078
  RHS nonzeros       :    3853

Variables            : Min LB: 0.000000         Max UB: 1.000000       
Objective nonzeros   : Min   : 1.000000         Max   : 1.000000       
Linear constraints   :
  Nonzeros           : Min   : 0.001954690      Max   : 100000.0       
  RHS nonzeros       : Min   : 0.2210000        Max   : 100000.0       
CPLEX> Version identifier: 22.1.1.0 | 2022-11-27 | 9160aff4d
Tried aggregator 3 times.
MIP Presolve eliminated 52325 rows and 31882 columns.
Aggregator did 10442 substitutions.
Reduced MIP has 24898 rows, 23445 columns, and 74761 nonzeros.
Reduced MIP has 5 binaries, 0 generals, 0 SOSs, and 0 indicators.
Presolve time = 0.19 sec. (226.04 ticks)
Found incumbent of value 311318.499484 after 0.30 sec. (326.64 ticks)
Probing time = 0.00 sec. (1.33 ticks)
Tried aggregator 1 time.
Detecting symmetries...
Reduced MIP has 24898 rows, 23445 columns, and 74761 nonzeros.
Reduced MIP has 5 binaries, 0 generals, 0 SOSs, and 0 indicators.
Presolve time = 0.03 sec. (47.52 ticks)
Probing time = 0.01 sec. (1.23 ticks)
MIP emphasis: balance optimality and feasibility.
MIP search method: dynamic search.
Parallel mode: deterministic, using up to 16 threads.
Root relaxation solution time = 0.98 sec. (752.41 ticks)

        Nodes                                         Cuts/
   Node  Left     Objective  IInf  Best Integer    Best Bound    ItCnt     Gap

*     0+    0                       311318.4995   -11321.7004           103.64%
      0     0    10760.4466     1   311318.4995    10760.4466       50   96.54%
*     0+    0                        12365.1180    10760.4466            12.98%
*     0+    0                        11324.4404    10760.4466             4.98%
      0     0        cutoff          11324.4404                    748    0.00%
Elapsed time = 1.67 sec. (1654.33 ticks, tree = 0.01 MB, solutions = 3)

Root node processing (before b&c):
  Real time             =    1.69 sec. (1657.52 ticks)
Parallel b&c, 16 threads:
  Real time             =    0.00 sec. (0.00 ticks)
  Sync time (average)   =    0.00 sec.
  Wait time (average)   =    0.00 sec.
                          ------------
Total (root+branch&cut) =    1.69 sec. (1657.52 ticks)

Solution pool: 3 solutions saved.

MIP - Integer optimal solution:  Objective =  1.1324440410e+04
Solution time =    1.69 sec.  Iterations = 748  Nodes = 0
Deterministic time = 1657.71 ticks  (982.64 ticks/sec)

CPLEX> Incumbent solution written to file 'C:\Users\wangy\Documents\GitHub\re_optimization\result_site_specific\tmpp3nfe3ax.cplex.sol'.
CPLEX> 
